(set-logic HORN)
(declare-fun rec_array_insert_sort@summary ((Array Int Int) Int Int (Array Int Int) ) Bool)
(declare-fun rec_array_insert_sort@pre ((Array Int Int) Int Int ) Bool)
(declare-fun !inv0 ((Array Int Int) Int Int (Array Int Int) Int Int ) Bool)
(assert (forall ((.array@0 (Array Int Int))(N@0 Int)(.array!size@0 Int)(array@0 (Array Int Int))) (=> (and (rec_array_insert_sort@pre |array@0| |.array!size@0| |N@0|) (= |.array@0| |array@0|) (> |N@0| 0)) (rec_array_insert_sort@pre |array@0| |.array!size@0| (- |N@0| 1)))))
(assert (forall ((.array@0 (Array Int Int))(N@0 Int)(.array!size@0 Int)(array@0 (Array Int Int))(array@1 (Array Int Int))(x@0 Int)(j@0 Int)) (=> (and (rec_array_insert_sort@summary |array@0| |.array!size@0| (- |N@0| 1) |array@1|) (rec_array_insert_sort@pre |array@0| |.array!size@0| (- |N@0| 1)) (rec_array_insert_sort@pre |array@0| |.array!size@0| |N@0|) (= |.array@0| |array@0|) (> |N@0| 0) (= |x@0| (select |array@1| |N@0|)) (= |j@0| (- |N@0| 1))) (!inv0 |.array@0| |.array!size@0| |N@0| |array@1| |x@0| |j@0|))))
(assert (forall ((.array@0 (Array Int Int))(.array!size@0 Int)(N@0 Int)(array@0 (Array Int Int))(x@0 Int)(j@0 Int)(array@1 (Array Int Int))(j@1 Int)) (=> (and (!inv0 |.array@0| |.array!size@0| |N@0| |array@0| |x@0| |j@0|) (= |array@1| (store |array@0| (+ |j@0| 1) (select |array@0| |j@0|))) (= |j@1| (- |j@0| 1)) (>= |j@0| 0) (> (select |array@0| |j@0|) |x@0|)) (!inv0 |.array@0| |.array!size@0| |N@0| |array@1| |x@0| |j@1|))))
(assert (forall ((N@0 Int)(array@0 (Array Int Int))) (=> (> |N@0| 0) (rec_array_insert_sort@pre |array@0| |N@0| (- |N@0| 1)))))
(assert (forall ((N@0 Int)(array@0 (Array Int Int))(array@1 (Array Int Int))) (=> (and (rec_array_insert_sort@summary |array@0| |N@0| (- |N@0| 1) |array@1|) (rec_array_insert_sort@pre |array@0| |N@0| (- |N@0| 1)) (> |N@0| 0) (not (forall ((k@0 Int)(l@0 Int)) (=> (and (<= 0 |k@0|) (< |k@0| (- |N@0| 1))) (=> (and (<= (+ |k@0| 1) |l@0|) (< |l@0| |N@0|)) (<= (select |array@1| |k@0|) (select |array@1| |l@0|))))))) false)))
(assert (forall ((.array@0 (Array Int Int))(.array!size@0 Int)(N@0 Int)(array@0 (Array Int Int))(array@1 (Array Int Int))(j@0 Int)(x@0 Int)) (=> (and (!inv0 |.array@0| |.array!size@0| |N@0| |array@1| |x@0| |j@0|) (not (and (>= |j@0| 0) (> (select |array@1| |j@0|) |x@0|))) (= |array@0| (store |array@1| (+ |j@0| 1) |x@0|))) (rec_array_insert_sort@summary |.array@0| |.array!size@0| |N@0| |array@0|))))
(assert (forall ((.array@0 (Array Int Int))(.array!size@0 Int)(N@0 Int)(array@0 (Array Int Int))) (=> (and (rec_array_insert_sort@pre |array@0| |.array!size@0| |N@0|) (= |.array@0| |array@0|) (not (> |N@0| 0))) (rec_array_insert_sort@summary |.array@0| |.array!size@0| |N@0| |array@0|))))
(check-sat)